Route #1: 1 39 36 45 21 46 60 4 14 52 31 16 7 10
Route #2: 54 24 13 30 44 23 59 67 69 42
Route #3: 33 11 6 37 63 51 57 9 41 40 49
Route #4: 29 8 15 48 66 68 5 56 28
Route #5: 61 35 50 3 34
Route #6: 58 26 12 64 18 17 2 38 47 53 25 27 55
Route #7: 19 65 22 62
Route #8: 20 32
Route #9: 43
cost 1770.2090347888177
